; benchmark generated from python API
(set-info :status unknown)
(declare-fun S_4 () Real)
(declare-fun C () Real)
(declare-fun L_3 () Real)
(declare-fun A_3 () Real)
(declare-fun L_2 () Real)
(declare-fun A_2 () Real)
(declare-fun L_1 () Real)
(declare-fun A_1 () Real)
(declare-fun S_3 () Real)
(declare-fun S_5 () Real)
(declare-fun S_1 () Real)
(declare-fun S_2 () Real)
(declare-fun A_5 () Real)
(declare-fun A_4 () Real)
(declare-fun L_0 () Real)
(declare-fun S_0 () Real)
(declare-fun A_0 () Real)
(declare-fun B () Real)
(assert
 (let (($x39 (>= L_0 0.0)))
 (let (($x870 (>= C 5.0)))
 (let (($x657 (>= B 5.0)))
 (let ((?x1136 (* (- 1.0) S_0)))
 (let ((?x1847 (* (- 5.0) C)))
 (let ((?x613 (* (- 1.0) B)))
 (let ((?x460 (* (- 1.0) A_5)))
 (let (($x17506 (<= (+ A_4 ?x460 S_5 ?x613 (* (- 4.0) C) (* (- 1.0) S_1)) 0.0)))
 (let (($x17498 (<= (+ A_4 ?x460 S_5 ?x613 (* (- 2.0) C) (* (- 1.0) S_3)) 0.0)))
 (let (($x17537 (<= (+ A_4 ?x460 (* (- 1.0) A_0) S_5 ?x613 (* (- 4.0) C) L_0) 0.0)))
 (let (($x2405 (<= (+ A_4 ?x460 (* (- 1.0) A_1) L_1 S_5 (* (- 3.0) C) ?x613) 0.0)))
 (let (($x3774 (<= (+ A_4 ?x460 (* (- 1.0) A_3) S_5 L_3 (* (- 1.0) C) ?x613) 0.0)))
 (let (($x10208 (<= (+ A_4 ?x460 (* (- 1.0) A_2) S_5 L_2 (* (- 2.0) C) ?x613) 0.0)))
 (let (($x17508 (<= (+ A_4 ?x460 S_5 ?x613 (* (- 3.0) C) (* (- 1.0) S_2)) 0.0)))
 (let (($x17512 (<= (+ A_4 ?x460 S_5 ?x613 (* (- 1.0) C) (* (- 1.0) S_4)) 0.0)))
 (let (($x8278 (<= (+ (* 3.0 C) (* (- 1.0) S_4) S_0) 0.0)))
 (let (($x3105 (<= (+ A_3 (* (- 1.0) L_3) (* (- 1.0) S_4)) 0.0)))
 (let (($x1582 (<= (+ A_1 (* (- 1.0) L_1) (* 2.0 C) (* (- 1.0) S_4)) 0.0)))
 (let (($x386 (<= 0.0 (+ (* (- 1.0) A_3) A_2 (* (- 1.0) L_2) C L_3))))
 (let (($x384 (not $x386)))
 (let (($x1486 (<= (+ A_2 (* (- 1.0) L_2) C (* (- 1.0) S_4)) 0.0)))
 (let (($x14670 (or $x1486 $x3105 (<= (+ (* 2.0 C) (* (- 1.0) S_4) S_1) 0.0))))
 (let (($x3097 (<= (+ A_3 (* (- 1.0) S_5) (* (- 1.0) L_3) C) 0.0)))
 (let (($x1232 (<= (+ A_2 (* (- 1.0) S_5) (* (- 1.0) L_2) (* 2.0 C)) 0.0)))
 (let (($x1030 (<= (+ A_4 (* (- 1.0) S_5) (* (- 1.0) L_3)) 0.0)))
 (let (($x23516 (or $x1030 $x1232 $x3097 (<= (+ (* (- 1.0) S_5) (* 3.0 C) S_1) 0.0))))
 (let (($x1490 (<= (+ A_2 (* (- 1.0) L_2) (* (- 1.0) S_3)) 0.0)))
 (let (($x13681 (or $x1490 (<= (+ A_1 (* (- 1.0) L_1) C (* (- 1.0) S_3)) 0.0) (<= (+ (* 2.0 C) (* (- 1.0) S_3) S_0) 0.0))))
 (let (($x2107 (<= (+ A_1 (* (- 1.0) L_1) (* (- 1.0) S_5) (* 3.0 C)) 0.0)))
 (let (($x23405 (or $x1030 $x1232 $x2107 $x3097 (<= (+ (* (- 1.0) S_5) (* 4.0 C) S_0) 0.0))))
 (let (($x23396 (or $x1030 $x3097 (<= (+ (* (- 1.0) S_5) (* 2.0 C) S_2) 0.0))))
 (let (($x20684 (<= 0.0 (+ (* (- 1.0) A_3) A_1 (* (- 1.0) L_1) (* 2.0 C) L_3))))
 (let (($x1502 (<= (+ A_2 (* (- 1.0) A_1) (* (- 1.0) L_2) (* (- 1.0) C) L_1) 0.0)))
 (let (($x1480 (not $x1502)))
 (let (($x3927 (<= (+ A_4 ?x460 (* (- 1.0) A_1) S_5 (* (- 3.0) C) L_1) 0.0)))
 (let (($x56 (= L_1 L_0)))
 (let (($x2786 (<= (+ A_1 (* (- 1.0) S_5) (* 3.0 C) (* (- 1.0) L_1) ?x613) 0.0)))
 (let (($x426 (<= 0.0 (+ (* (- 1.0) A_2) A_1 C (* (- 1.0) L_1) L_2 ?x613))))
 (let (($x422 (not $x426)))
 (let ((?x596 (* (- 1.0) L_1)))
 (let ((?x1027 (* 2.0 C)))
 (let ((?x468 (* (- 1.0) A_3)))
 (let (($x390 (<= 0.0 (+ ?x468 A_1 L_3 ?x1027 ?x596 ?x613))))
 (let (($x388 (not $x390)))
 (let (($x5423 (<= (+ A_3 (* (- 3.0) C) (* (- 1.0) S_1) (* (- 1.0) L_3) ?x613) 0.0)))
 (let ((?x570 (* (- 1.0) L_3)))
 (let ((?x1048 (* (- 2.0) C)))
 (let ((?x476 (* (- 1.0) A_1)))
 (let (($x22475 (<= 0.0 (+ A_3 ?x476 ?x1048 L_1 ?x570 ?x613))))
 (let (($x22533 (<= 0.0 (+ A_3 (* (- 1.0) A_2) (* (- 1.0) C) L_2 ?x570 ?x613))))
 (let (($x76 (= L_3 L_2)))
 (let (($x41900 (or (= (+ ?x468 A_2 (* (- 1.0) L_2) C L_3 B) 0.0) (not $x22533))))
 (let (($x5428 (<= (+ A_3 (* (- 1.0) A_0) (* (- 3.0) C) ?x570 ?x613 L_0) 0.0)))
 (let (($x40952 (or $x76 (<= (+ A_4 ?x460 ?x468 S_5 (* (- 1.0) C) L_3) 0.0))))
 (let (($x41549 (or $x390 $x426 (<= (+ A_1 ?x1027 (* (- 1.0) S_4) ?x596 ?x613) 0.0))))
 (let (($x22724 (or $x76 (<= (+ ?x468 (* 3.0 C) S_0 L_3 B) 0.0) $x22475 $x22533)))
 (let (($x1494 (<= (+ A_1 (* (- 1.0) S_2) ?x596) 0.0)))
 (let (($x1403 (not $x56)))
 (let (($x41335 (or $x76 $x426 $x1403 (<= (+ ?x468 A_1 ?x1027 L_3 (* (- 1.0) L_0)) 0.0))))
 (let (($x5465 (<= (+ A_3 (* (- 1.0) S_4) ?x570 ?x613) 0.0)))
 (let (($x22118 (<= 0.0 (+ ?x468 A_2 C (* (- 1.0) L_2) L_3 ?x613))))
 (let (($x41587 (or $x1030 (<= (+ A_2 (* (- 1.0) S_5) ?x1027 (* (- 1.0) L_2) ?x613) 0.0) $x22118)))
 (let (($x66 (= L_2 L_1)))
 (let (($x41007 (or $x66 (<= (+ A_4 ?x460 (* (- 1.0) A_2) S_5 ?x1048 L_2) 0.0))))
 (let (($x40933 (or $x66 $x1403 (<= (+ (* (- 1.0) A_2) A_1 C L_2 (* (- 1.0) L_0)) 0.0))))
 (let (($x1891 (<= (+ A_2 (* (- 1.0) A_0) ?x1048 (* (- 1.0) L_2) ?x613 L_0) 0.0)))
 (let (($x41313 (or $x66 (<= (+ (* (- 1.0) A_2) S_5 (* (- 3.0) C) L_2 B) 0.0))))
 (let (($x41396 (or $x22118 (<= (+ A_2 C (* (- 1.0) S_4) (* (- 1.0) L_2) ?x613) 0.0))))
 (let (($x41065 (or $x66 (<= (+ (* (- 1.0) A_2) (* (- 1.0) C) S_3 L_2 B) 0.0))))
 (let (($x22078 (<= 0.0 (+ A_2 ?x476 (* (- 1.0) C) L_1 (* (- 1.0) L_2) ?x613))))
 (let (($x41545 (or (not $x22078) (= (+ (* (- 1.0) A_2) A_1 ?x596 C L_2 B) 0.0))))
 (let (($x1800 (<= (+ A_2 (* (- 1.0) C) (* (- 1.0) S_2) (* (- 1.0) L_2) ?x613) 0.0)))
 (let (($x1167 (<= (+ A_1 (* (- 1.0) A_0) (* (- 1.0) C) ?x596 ?x613 L_0) 0.0)))
 (let (($x1792 (<= (+ A_2 (* (- 1.0) S_3) (* (- 1.0) L_2) ?x613) 0.0)))
 (let (($x450 (or $x66 $x22078 (<= (+ (* (- 1.0) A_2) ?x1027 S_0 L_2 B) 0.0))))
 (let (($x1127 (<= (+ A_1 (* (- 1.0) S_2) ?x596 ?x613) 0.0)))
 (let (($x128 (>= S_1 S_0)))
 (let (($x131 (>= S_2 S_1)))
 (let (($x134 (>= S_3 S_2)))
 (let (($x137 (>= S_4 S_3)))
 (let (($x140 (>= S_5 S_4)))
 (let (($x142 (>= A_1 A_0)))
 (let (($x143 (>= A_2 A_1)))
 (let (($x144 (>= A_3 A_2)))
 (let (($x145 (>= A_4 A_3)))
 (let (($x146 (>= A_5 A_4)))
 (and $x146 $x145 $x144 $x143 $x142 $x140 $x137 $x134 $x131 $x128 (or (not (<= 0.0 (+ ?x596 L_0))) $x56) $x1127 (or $x56 (<= (+ ?x476 S_1 L_1 B) 0.0)) (or $x66 (not (<= 0.0 (+ L_1 (* (- 1.0) L_2))))) (or $x66 (<= (+ (* (- 1.0) A_2) S_2 L_2 B) 0.0)) (or $x66 $x386) $x450 (or $x76 $x384 (= (+ ?x468 A_2 C (* (- 1.0) L_2) L_3) 0.0)) $x1792 $x1167 (<= (+ A_1 ?x1048 ?x1136 ?x596 ?x613) 0.0) $x1800 $x41545 (<= (+ A_1 (* (- 1.0) C) (* (- 1.0) S_1) ?x596 ?x613) 0.0) $x41065 (<= (+ A_2 ?x1048 (* (- 1.0) S_1) (* (- 1.0) L_2) ?x613) 0.0) (or $x66 (<= (+ (* (- 1.0) A_2) ?x1048 S_4 L_2 B) 0.0)) (<= (+ A_2 (* (- 3.0) C) ?x1136 (* (- 1.0) L_2) ?x613) 0.0) $x41396 $x41313 (or $x56 $x1502) (or $x66 (<= (+ (* (- 1.0) A_2) C S_1 L_2 B) 0.0)) $x1891 $x40933 (or $x66 (= (+ (* (- 1.0) A_2) A_1 C ?x596 L_2) 0.0) $x1480) (or $x3105 (not $x22118)) $x41007 (or $x1030 $x3097 (not $x22118)) $x41587 (or $x56 (<= (+ ?x476 C S_0 L_1 B) 0.0)) (or $x426 (<= (+ A_1 C (* (- 1.0) S_3) ?x596 ?x613) 0.0)) (or (<= (+ A_1 C (* (- 1.0) S_3) ?x596 ?x613) 0.0) $x1490) (or $x56 $x20684) (or $x76 (<= (+ ?x468 S_5 ?x1048 L_3 B) 0.0)) (<= (+ A_3 (* (- 1.0) C) (* (- 1.0) S_3) ?x570 ?x613) 0.0) $x5465 (or $x76 (<= (+ ?x468 S_3 L_3 B) 0.0)) (or $x1030 (<= (+ A_3 (* (- 1.0) S_5) C ?x570 ?x613) 0.0)) (or $x76 (<= (+ ?x468 (* (- 1.0) C) S_4 L_3 B) 0.0)) (or $x76 (<= (+ ?x468 C S_2 L_3 B) 0.0)) (<= (+ A_3 (* (- 4.0) C) ?x1136 ?x570 ?x613) 0.0) $x41335 (or $x1494 (<= (+ C (* (- 1.0) S_2) S_0) 0.0)) (or $x76 (not (<= 0.0 (+ L_2 ?x570)))) (or $x76 $x422 $x22533) $x22724 (or $x76 $x426 (= (+ ?x468 A_1 L_3 ?x1027 ?x596) 0.0) (not $x20684)) (or $x56 (<= (+ ?x476 (* (- 1.0) C) S_2 L_1 B) 0.0)) (or $x56 (<= (+ ?x476 ?x1048 S_3 L_1 B) 0.0)) (or $x56 (<= (+ ?x476 (* (- 3.0) C) S_4 L_1 B) 0.0)) (or $x56 (<= (+ ?x476 S_5 (* (- 4.0) C) L_1 B) 0.0)) $x41549 $x40952 $x5428 $x41900 (or $x76 $x22533 (<= (+ ?x468 ?x1027 S_1 L_3 B) 0.0)) (<= (+ A_3 ?x1048 (* (- 1.0) S_2) ?x570 ?x613) 0.0) (or (= (+ ?x468 A_1 ?x596 ?x1027 L_3 B) 0.0) (not $x22475)) (<= (+ ?x1048 S_1 ?x1136) 0.0) (<= (+ (* (- 1.0) A_0) (* (- 1.0) C) S_1 L_0) 0.0) $x5423 (or $x1030 (<= (+ (* (- 1.0) S_5) C S_3) 0.0)) (or $x3105 (<= (+ C (* (- 1.0) S_4) S_2) 0.0)) (or $x390 $x426 $x1030 $x2786) (or $x388 $x426 $x3105) (or $x388 $x426 $x1030 $x3097) (or $x422 $x1486 $x3105) (or $x386 $x422 $x1030 $x1232) (or $x1030 $x1232 $x2786 $x3097) (or $x56 $x3927) (or $x1490 (<= (+ C (* (- 1.0) S_3) S_1) 0.0)) (<= (+ ?x476 L_1 S_5 (* (- 4.0) C)) 0.0) (<= (+ S_5 (* (- 4.0) C) (* (- 1.0) S_2)) 0.0) (<= (+ (* (- 1.0) A_0) S_5 ?x1847 L_0) 0.0) (or $x1480 $x1486 $x3105 $x8278) (or $x1486 $x1582 $x8278 $x20684) (<= (+ ?x1048 S_2 (* (- 1.0) S_1)) 0.0) $x23396 (<= (+ (* (- 1.0) A_0) ?x1048 S_2 L_0) 0.0) (<= (+ (* (- 1.0) A_0) (* (- 3.0) C) S_3 L_0) 0.0) $x23405 (<= (+ ?x476 L_1 (* (- 1.0) C) S_2) 0.0) (<= (+ S_5 ?x1847 (* (- 1.0) S_1)) 0.0) $x13681 (<= (+ ?x1048 S_3 (* (- 1.0) S_2)) 0.0) $x23516 (<= (+ (* (- 3.0) C) S_2 ?x1136) 0.0) $x14670 (<= (+ S_5 (* (- 6.0) C) ?x1136) 0.0) (<= (+ ?x1847 S_4 ?x1136) 0.0) (<= (+ ?x1048 S_4 (* (- 1.0) S_3)) 0.0) (<= (+ (* (- 1.0) A_0) (* (- 4.0) C) S_4 L_0) 0.0) (<= (+ (* (- 3.0) C) S_4 (* (- 1.0) S_2)) 0.0) (or $x384 $x1582 $x3105 $x8278) (<= (+ (* (- 3.0) C) S_3 (* (- 1.0) S_1)) 0.0) (<= (+ (* (- 4.0) C) S_4 (* (- 1.0) S_1)) 0.0) (<= (+ (* (- 4.0) C) S_3 ?x1136) 0.0) (<= (+ S_5 (* (- 3.0) C) (* (- 1.0) S_3)) 0.0) $x17512 $x17508 $x10208 $x3774 $x2405 $x17537 $x17498 $x17506 (<= (+ A_4 ?x460 S_5 ?x613 ?x1847 ?x1136) 0.0) $x657 $x870 $x39 (<= (+ (* (- 1.0) A_4) L_3 S_4) 0.0) (<= (+ (* (- 1.0) A_0) S_0 L_0) 0.0) (<= (+ (* (- 1.0) A_4) S_5 L_3 (* (- 1.0) C)) 0.0) (<= (+ ?x460 S_5 L_3) 0.0) (<= (+ ?x468 L_3 S_3) 0.0) (<= (+ (* (- 1.0) A_2) L_2 S_2) 0.0) (<= (+ ?x476 S_1 L_1) 0.0) (<= (+ S_5 ?x1048 (* (- 1.0) S_4)) 0.0) (<= (+ ?x468 S_5 L_3 ?x1048) 0.0) (<= (+ (* (- 1.0) A_2) S_5 L_2 (* (- 3.0) C)) 0.0) (<= (+ (* (- 1.0) A_2) L_2 (* (- 1.0) C) S_3) 0.0) (<= (+ ?x476 L_1 ?x1048 S_3) 0.0) (<= (+ ?x476 L_1 (* (- 3.0) C) S_4) 0.0) (<= (+ (* (- 1.0) A_2) L_2 ?x1048 S_4) 0.0) (<= (+ ?x468 L_3 (* (- 1.0) C) S_4) 0.0)))))))))))))))))))))))))))))))))))))))))))))))))))))))))))))))))))))))))))))))))))))))))
(check-sat)
